n = 15;
m = 44;

max_len = 7;
word_lens = [ 4, 4, 4, 5, 5, 5, 5, 5, 5, 5, 5, 5, 5, 5, 5, 5, 5, 5, 5, 5, 5, 6, 6, 6, 6, 6, 6, 6, 6, 6, 6, 6, 6, 6, 6, 6, 6, 6, 6, 6, 6, 6, 6, 7 ];
words = [| M, A, S, S, E, E, E | B, A, C, H, E, E, E | P, O, P, E, E, E, E | O, R, G, A, N, E, E | O, P, E, R, A, E, E | I, T, A, L, Y, E, E | M, U, S, I, C, E, E | E, T, U, D, E, E, E | C, E, L, L, O, E, E | C, H, O, I, R, E, E | S, A, L, O, N, E, E | M, O, T, E, T, E, E | L, A, R, G, O, E, E | P, I, A, N, O, E, E | V, E, R, D, I, E, E | F, L, U, T, E, E, E | C, A, N, T, O, E, E | L, I, S, Z, T, E, E | H, A, Y, D, N, E, E | P, A, R, I, S, E, E | W, A, L, T, Z, E, E | M, O, Z, A, R, T, E | B, R, A, H, M, S, E | M, E, L, O, D, Y, E | L, O, N, D, O, N, E | P, R, A, G, U, E, E | C, H, O, P, I, N, E | S, O, N, A, T, A, E | W, A, R, S, A, W, E | P, O, L, A, N, D, E | T, E, C, H, N, O, E | M, A, H, L, E, R, E | L, E, G, A, T, O, E | H, A, N, D, E, L, E | M, U, N, I, C, H, E | W, A, G, N, E, R, E | C, Z, E, C, H, S, E | F, R, A, N, C, E, E | V, I, E, N, N, A, E | R, I, D, D, I, M, E | A, U, T, H, O, R, E | W, R, I, T, E, R, E | V, I, O, L, I, N, E | M, A, Z, U, R, K, A |];

pos_var_strat = first_fail;
pos_val_strat = indomain_median;
